RT is False
Default write of storage_offers_DA.csv just to have a file (but constraint should be inactive)
Reading model...
...model read.
creating competitive generators file...
...competitive generators recorded.
Loading data...
.. day-ahead data with real-time VRE data read.
Compiling instance...
...instance created.
Creating Offer Mitigation (model will solve as dispatch if TRUE)...
Solving...

Welcome to IBM(R) ILOG(R) CPLEX(R) Interactive Optimizer 12.8.0.0
  with Simplex, Mixed Integer & Barrier Optimizers
5725-A06 5725-A29 5724-Y48 5724-Y49 5724-Y54 5724-Y55 5655-Y21
Copyright IBM Corp. 1988, 2017.  All Rights Reserved.

Type 'help' for a list of available commands.
Type 'help' followed by a command name for more
information on commands.

CPLEX> Logfile 'cplex.log' closed.
Logfile 'C:\Users\llavi\Desktop\test919\logs\tmpef41sk8l.cplex.log' open.
CPLEX> New value for parallel optimization mode: -1
CPLEX> New value for mixed integer optimality gap tolerance: 0.01
CPLEX> New value for integrality tolerance: 1e-09
CPLEX> New value for feasibility tolerance: 0.01
CPLEX> New value for deterministic time limit in ticks: 75000
CPLEX> Problem 'C:\Users\llavi\Desktop\test919\logs\tmpos5y4n13.pyomo.lp' read.
Read time = 0.06 sec. (3.03 ticks)
CPLEX> Problem name         : C:\Users\llavi\Desktop\test919\logs\tmpos5y4n13.pyomo.lp
Objective sense      : Minimize
Variables            :   26465  [Nneg: 1,  Box: 22000,  Free: 4464]
Objective nonzeros   :    2496
Linear constraints   :   27515  [Less: 14006,  Greater: 4416,  Equal: 9093]
  Nonzeros           :   89171
  RHS nonzeros       :   12271

Variables            : Min LB: -5000.000        Max UB: 1000000.       
Objective nonzeros   : Min   : 15.73158         Max   : 124.0997       
Linear constraints   :
  Nonzeros           : Min   : 0.8500000        Max   : 3000.000       
  RHS nonzeros       : Min   : 0.4000000        Max   : 5000.000       
CPLEX> CPXPARAM_Simplex_Tolerances_Feasibility          0.01
CPXPARAM_Parallel                                -1
CPXPARAM_DetTimeLimit                            75000
CPXPARAM_MIP_Tolerances_MIPGap                   0.01
CPXPARAM_MIP_Tolerances_Integrality              1.0000000000000001e-09
Parallel mode: opportunistic, using up to 4 threads for concurrent optimization.
Tried aggregator 1 time.
LP Presolve eliminated 21401 rows and 15895 columns.
Aggregator did 722 substitutions.
Reduced LP has 5392 rows, 9848 columns, and 31764 nonzeros.
Presolve time = 0.05 sec. (22.46 ticks)

Iteration log . . .
Iteration:     1   Dual objective     =             0.000000
Perturbation started.
Iteration:   101   Dual objective     =             0.000000
Iteration:   359   Dual objective     =             1.352692
Iteration:   630   Dual objective     =             1.976700
Iteration:   956   Dual objective     =             2.154481
Iteration:  1152   Dual objective     =             2.275604
Iteration:  1501   Dual objective     =             2.334759
Iteration:  1786   Dual objective     =         90778.405053
Iteration:  2061   Dual objective     =        373348.556432
Iteration:  2358   Dual objective     =        437569.047897
Iteration:  2678   Dual objective     =        446978.446648
Iteration:  3017   Dual objective     =        472720.574206
Iteration:  3366   Dual objective     =        482627.563165
Iteration:  3707   Dual objective     =        494043.705777
Iteration:  4130   Dual objective     =        496257.164025
Removing perturbation.

Dual simplex solved model.


Dual simplex - Optimal:  Objective =  4.9647651433e+05
Solution time =    0.16 sec.  Iterations = 4469 (0)
Deterministic time = 95.07 ticks  (609.40 ticks/sec)

CPLEX> Solution written to file 'C:\Users\llavi\Desktop\test919\logs\tmpz0i9dw6m.cplex.sol'.
CPLEX> Exporting results... 
...storage offer mitigation file created
Converting model to MPEC...
...converted
NOTE: initial MIP solve with only storage competitive to get feasible solution
Solving...

Welcome to IBM(R) ILOG(R) CPLEX(R) Interactive Optimizer 12.8.0.0
  with Simplex, Mixed Integer & Barrier Optimizers
5725-A06 5725-A29 5724-Y48 5724-Y49 5724-Y54 5724-Y55 5655-Y21
Copyright IBM Corp. 1988, 2017.  All Rights Reserved.

Type 'help' for a list of available commands.
Type 'help' followed by a command name for more
information on commands.

CPLEX> Logfile 'cplex.log' closed.
Logfile 'C:\Users\llavi\Desktop\test919\logs\tmpcg4k7jpf.cplex.log' open.
CPLEX> New value for parallel optimization mode: -1
CPLEX> New value for mixed integer optimality gap tolerance: 0.01
CPLEX> New value for integrality tolerance: 1e-09
CPLEX> New value for feasibility tolerance: 0.01
CPLEX> New value for deterministic time limit in ticks: 75000
CPLEX> Problem 'C:\Users\llavi\Desktop\test919\logs\tmpm7fmnc5r.pyomo.lp' read.
Read time = 0.27 sec. (13.96 ticks)
CPLEX> Problem name         : C:\Users\llavi\Desktop\test919\logs\tmpm7fmnc5r.pyomo.lp
Objective sense      : Maximize
Variables            :   53805  [Nneg: 1,  Box: 22000,  Free: 4464,
                                 Binary: 27340]
Objective nonzeros   :    9078
Linear constraints   :  123205  [Less: 41346,  Greater: 59096,  Equal: 22763]
  Nonzeros           :  291705
  RHS nonzeros       :   67473

Variables            : Min LB: -5000.000        Max UB: 1000000.       
Objective nonzeros   : Min   : 0.4000000        Max   : 2500.000       
Linear constraints   :
  Nonzeros           : Min   : 0.4000000        Max   : 1000000.       
  RHS nonzeros       : Min   : 0.4000000        Max   : 1000000.       
CPLEX> CPXPARAM_Simplex_Tolerances_Feasibility          0.01
CPXPARAM_Parallel                                -1
CPXPARAM_DetTimeLimit                            75000
CPXPARAM_MIP_Tolerances_MIPGap                   0.01
CPXPARAM_MIP_Tolerances_Integrality              1.0000000000000001e-09
Tried aggregator 3 times.
MIP Presolve eliminated 88801 rows and 19149 columns.
MIP Presolve added 3345 rows and 0 columns.
MIP Presolve modified 23824 coefficients.
Aggregator did 12921 substitutions.
Reduced MIP has 24828 rows, 21179 columns, and 70779 nonzeros.
Reduced MIP has 8373 binaries, 0 generals, 0 SOSs, and 0 indicators.
Presolve time = 0.30 sec. (167.85 ticks)
Probing fixed 413 vars, tightened 2899 bounds.
Probing time = 3.30 sec. (901.91 ticks)
Tried aggregator 2 times.
MIP Presolve eliminated 933 rows and 827 columns.
MIP Presolve modified 2234 coefficients.
Aggregator did 45 substitutions.
Reduced MIP has 23850 rows, 20307 columns, and 67946 nonzeros.
Reduced MIP has 7960 binaries, 0 generals, 0 SOSs, and 0 indicators.
Presolve time = 0.13 sec. (55.72 ticks)
Probing time = 0.06 sec. (15.21 ticks)
Clique table members: 6237.
MIP emphasis: balance optimality and feasibility.
MIP search method: dynamic search.
Parallel mode: opportunistic, using up to 4 threads.
Root relaxation solution time = 0.61 sec. (551.68 ticks)

        Nodes                                         Cuts/
   Node  Left     Objective  IInf  Best Integer    Best Bound    ItCnt     Gap

      0     0      -18.6296   897                    -18.6296     4032         
      0     0      -18.6892    22                    Cuts: 11     4040         
      0     0      -18.6892    20                Flowcuts: 10     4046         
      0     2      -18.6892    12                    -18.6892     4046         
Elapsed time = 15.95 sec. (5041.98 ticks, tree = 0.29 MB, solutions = 0)
     48    33    -2522.0547     3                    -18.6892     4810         
*    88+   30                        -2478.3118      -18.6892            99.25%
    150    71    -1033.3033     1    -2478.3118      -48.5069     5797   98.04%
    216    86     -165.4464     8    -2478.3118      -48.5069     5837   98.04%
    262   144     -322.1630     7    -2478.3118      -48.5069     6028   98.04%
    313   165     -503.3214     1    -2478.3118      -48.5069     6109   98.04%
    369   183     -162.2160     8    -2478.3118      -48.5069     6205   98.04%
    426   230     -868.7732     7    -2478.3118      -48.5069     6378   98.04%
    486    54      -48.5069     7     -161.4474      -48.5069     6531   69.95%

Flow cuts applied:  8
Gomory fractional cuts applied:  5

Root node processing (before b&c):
  Real time             =   15.28 sec. (4998.76 ticks)
Parallel b&c, 4 threads:
  Real time             =    5.01 sec. (3036.09 ticks)
  Sync time (average)   =    0.75 sec.
  Wait time (average)   =    0.02 sec.
                          ------------
Total (root+branch&cut) =   20.30 sec. (8034.85 ticks)

Solution pool: 3 solutions saved.

MIP - Integer optimal, tolerance (0.01/1e-06):  Objective = -1.6144742241e+02
Current MIP best bound = -1.6051703942e+02 (gap = 0.930383, 0.58%)
Solution time =   20.30 sec.  Iterations = 7249  Nodes = 665 (8)
Deterministic time = 8035.00 ticks  (395.87 ticks/sec)

CPLEX> Incumbent solution written to file 'C:\Users\llavi\Desktop\test919\logs\tmpeycgmb5t.cplex.sol'.
CPLEX> NOTE: no warmstart specified for MIP iteration, default behavior is true
NOTE: resolving with all competitive generators using storage-only solution to warmstart
Solving...

Welcome to IBM(R) ILOG(R) CPLEX(R) Interactive Optimizer 12.8.0.0
  with Simplex, Mixed Integer & Barrier Optimizers
5725-A06 5725-A29 5724-Y48 5724-Y49 5724-Y54 5724-Y55 5655-Y21
Copyright IBM Corp. 1988, 2017.  All Rights Reserved.

Type 'help' for a list of available commands.
Type 'help' followed by a command name for more
information on commands.

CPLEX> Logfile 'cplex.log' closed.
Logfile 'C:\Users\llavi\Desktop\test919\logs\tmp6mxu_9v3.cplex.log' open.
CPLEX> New value for parallel optimization mode: -1
CPLEX> New value for mixed integer optimality gap tolerance: 0.01
CPLEX> New value for integrality tolerance: 1e-09
CPLEX> New value for feasibility tolerance: 0.01
CPLEX> New value for deterministic time limit in ticks: 75000
CPLEX> Problem 'C:\Users\llavi\Desktop\test919\logs\tmpmd1aajbt.pyomo.lp' read.
Read time = 0.25 sec. (13.98 ticks)
CPLEX> MIP start file 'C:\Users\llavi\Desktop\test919\logs\tmpuczfc0jv.cplex.mst' read.
CPLEX> Problem name         : C:\Users\llavi\Desktop\test919\logs\tmpmd1aajbt.pyomo.lp
Objective sense      : Maximize
Variables            :   54525  [Nneg: 1,  Box: 22720,  Free: 4464,
                                 Binary: 27340]
Objective nonzeros   :    9774
Linear constraints   :  123205  [Less: 41346,  Greater: 59096,  Equal: 22763]
  Nonzeros           :  291705
  RHS nonzeros       :   67473

Variables            : Min LB: -5000.000        Max UB: 1000000.       
Objective nonzeros   : Min   : 0.4000000        Max   : 2500.000       
Linear constraints   :
  Nonzeros           : Min   : 0.4000000        Max   : 1000000.       
  RHS nonzeros       : Min   : 0.4000000        Max   : 1000000.       
CPLEX> CPXPARAM_Simplex_Tolerances_Feasibility          0.01
CPXPARAM_Parallel                                -1
CPXPARAM_DetTimeLimit                            75000
CPXPARAM_MIP_Tolerances_MIPGap                   0.01
CPXPARAM_MIP_Tolerances_Integrality              1.0000000000000001e-09
Warning:  No solution found from 1 MIP starts.
Retaining values of one MIP start for possible repair.
Tried aggregator 3 times.
MIP Presolve eliminated 88801 rows and 19869 columns.
MIP Presolve added 3345 rows and 0 columns.
MIP Presolve modified 23824 coefficients.
Aggregator did 12921 substitutions.
Reduced MIP has 24828 rows, 21179 columns, and 70779 nonzeros.
Reduced MIP has 8373 binaries, 0 generals, 0 SOSs, and 0 indicators.
Presolve time = 0.30 sec. (168.22 ticks)
Probing fixed 413 vars, tightened 2899 bounds.
Probing time = 3.17 sec. (901.91 ticks)
Tried aggregator 2 times.
MIP Presolve eliminated 933 rows and 827 columns.
MIP Presolve modified 2234 coefficients.
Aggregator did 45 substitutions.
Reduced MIP has 23850 rows, 20307 columns, and 67946 nonzeros.
Reduced MIP has 7960 binaries, 0 generals, 0 SOSs, and 0 indicators.
Presolve time = 0.13 sec. (55.72 ticks)
Probing time = 0.06 sec. (15.21 ticks)
Clique table members: 6237.
MIP emphasis: balance optimality and feasibility.
MIP search method: dynamic search.
Parallel mode: opportunistic, using up to 4 threads.
Root relaxation solution time = 0.56 sec. (545.03 ticks)

        Nodes                                         Cuts/
   Node  Left     Objective  IInf  Best Integer    Best Bound    ItCnt     Gap

      0     0     8455.2677   901                   8455.2677     4071         
      0     0     8455.2080    26                    Cuts: 19     4082         
      0     0     8455.2080    24                Flowcuts: 21     4093         
      0     0     8453.9349    23                     Cuts: 4     4096         
      0     0     8453.9349    24                 Flowcuts: 1     4097         
      0     0     8452.8711    21                 Flowcuts: 1     4102         
Repair heuristic found nothing.
      0     4     1968.7071    17                   8419.2680     4124         
Elapsed time = 23.19 sec. (8185.11 ticks, tree = 0.03 MB, solutions = 0)
     88    59     7462.3754    15                   8410.4110     5245         
    162   113     7288.8863     5                   8410.4110     6871         
    234   146     8072.1048    13                   8410.4110     7134         
*   264   152      integral     0     7874.1231     8410.4110     7264    6.81%
    302    47     8182.4320    12     7874.1231     8357.9388     7708    6.14%
    411    96        cutoff           7874.1231     8357.9388     7968    6.14%
    457   115     8298.1954     1     7874.1231     8357.9388     8025    6.14%
    481   114     8182.2052     3     7874.1231     8357.9388     8037    6.14%
    502   117        cutoff           7874.1231     8357.9388     8061    6.14%
    518   123     7999.9521     5     7874.1231     8357.9388     8088    6.14%
*   579   125      integral     0     8148.1441     8357.9388     8169    2.57%
Elapsed time = 26.83 sec. (10834.33 ticks, tree = 0.29 MB, solutions = 2)
    775   122     8298.5519     1     8148.1441     8298.5519    15210    1.85%
*   878   203      integral     0     8297.9686     8298.5519    15774    0.01%

Cover cuts applied:  2
Flow cuts applied:  30
Mixed integer rounding cuts applied:  1
Gomory fractional cuts applied:  8

Root node processing (before b&c):
  Real time             =   22.92 sec. (8164.85 ticks)
Parallel b&c, 4 threads:
  Real time             =    6.70 sec. (4960.00 ticks)
  Sync time (average)   =    0.11 sec.
  Wait time (average)   =    0.01 sec.
                          ------------
Total (root+branch&cut) =   29.63 sec. (13124.85 ticks)

Solution pool: 3 solutions saved.

MIP - Integer optimal, tolerance (0.01/1e-06):  Objective =  8.2979686193e+03
Current MIP best bound =  8.2985518551e+03 (gap = 0.583236, 0.01%)
Solution time =   29.64 sec.  Iterations = 15819  Nodes = 906 (20)
Deterministic time = 13125.01 ticks  (442.80 ticks/sec)

CPLEX> Incumbent solution written to file 'C:\Users\llavi\Desktop\test919\logs\tmpviwdfa0_.cplex.sol'.
CPLEX> Exporting results... 
